Set parameter Username
Set parameter LicenseID to value 2830069
Gurobi Optimizer version 13.0.2 build v13.0.2rc1 (linux64 - "Ubuntu 26.04 LTS")

CPU model: Intel(R) Core(TM) Ultra 9 185H, instruction set [SSE2|AVX|AVX2]
Thread count: 22 physical cores, 22 logical processors, using up to 22 threads

Optimize a model with 94 rows, 113 columns and 600 nonzeros (Min)
Model fingerprint: 0x28533c69
Model has 90 linear objective coefficients
Variable types: 0 continuous, 113 integer (108 binary)
Coefficient statistics:
  Matrix range     [1e+00, 7e+00]
  Objective range  [6e+00, 1e+01]
  Bounds range     [1e+00, 5e+00]
  RHS range        [1e+00, 1e+01]

Presolve removed 39 rows and 57 columns
Presolve time: 0.00s
Presolved: 55 rows, 56 columns, 288 nonzeros
Variable types: 0 continuous, 56 integer (51 binary)

Root relaxation: objective 5.225857e+01, 29 iterations, 0.00 seconds (0.00 work units)

    Nodes    |    Current Node    |     Objective Bounds      |     Work
 Expl Unexpl |  Obj  Depth IntInf | Incumbent    BestBd   Gap | It/Node Time

     0     0   52.25857    0   16          -   52.25857      -     -    0s
H    0     0                      57.2761415   52.25857  8.76%     -    0s
H    0     0                      52.3496958   52.25857  0.17%     -    0s

Cutting planes:
  Learned: 1
  Cover: 1
  Implied bound: 2
  Clique: 4

Explored 1 nodes (30 simplex iterations) in 0.01 seconds (0.00 work units)
Thread count was 22 (of 22 available processors)

Solution count 2: 52.3497 57.2761 

Optimal solution found (tolerance 1.00e-04)
Best objective 5.234969579318e+01, best bound 5.234969579318e+01, gap 0.0000%
Optimized Value: 52.34969579318056
Vehicle 10: [50, 412, 50]
Load: 6/8
Distance: 12.806248474865697
Vehicle 20: [50, 205, 317, 50]
Load: 9/9
Distance: 19.53565787126474
Vehicle 30: [50, 101, 999, 50]
Load: 10/10
Distance: 20.007789447050126
